\ENCODING=ISO-8859-1
\Problem name: 

Minimize
 obj: C_max
Subject To
 restr1_0: x_0_0  = 1
 restr1_1: x_1_0  = 1
 restr2_0: - C_max + 140 x_0_0 <= 0
 restr2_1: - C_max + 648 x_1_0 <= 0
Bounds
      C_max >= 0
 0 <= x_0_0 <= 1
 0 <= x_1_0 <= 1
Binaries
 x_0_0  x_1_0 
Generals
 C_max 
End
